decision_x1=[0,7];
decision_x2=[0,7];
decision_x3=[0,7];
decision_x4=[0,7];
decision_x5=[0,7];
decision_x6=[0,7];
decision_x7=[0,7];
decision_x8=[0,7];
decision_x9=[0,7];
decision_x10=[0,7];
decision_x11=[0,7];
decision_x12=[0,7];
decision_x13=[0,7];
decision_x14=[0,7];
random_y1=[0,7];
random_y2=[0,7];
random_y3=[0,7];
random_y4=[0,7];
random_y5=[0,7];
random_y6=[0,7];
constraint_x2_x1=[
0,0,3.9|
0,1,5.2|
0,2,2.6|
0,3,9.9|
0,4,3.3|
0,5,1.6|
0,6,7.6|
0,7,4.9|
1,0,2.9|
1,1,6.5|
1,2,9.6|
1,3,9.3|
1,4,4|
1,5,3.4|
1,6,6.3|
1,7,6.7|
2,0,5.8|
2,1,9.4|
2,2,9.3|
2,3,0.21|
2,4,9.9|
2,5,3.5|
2,6,0.68|
2,7,3.4|
3,0,0.39|
3,1,0.88|
3,2,4.8|
3,3,0.099|
3,4,4.8|
3,5,4.4|
3,6,2.1|
3,7,2.4|
4,0,7.7|
4,1,9.9|
4,2,9|
4,3,6.5|
4,4,8|
4,5,2.5|
4,6,1.2|
4,7,0.13|
5,0,1.9|
5,1,6.4|
5,2,5.6|
5,3,5.7|
5,4,0.95|
5,5,2.6|
5,6,1|
5,7,1.4|
6,0,7.1|
6,1,9.9|
6,2,4.7|
6,3,7.8|
6,4,2|
6,5,7.4|
6,6,7.4|
6,7,0.84|
7,0,3.7|
7,1,6.8|
7,2,1.3|
7,3,3.3|
7,4,9.5|
7,5,7.3|
7,6,1.2|
7,7,4.2|
];
constraint_x3_x2=[
0,0,8.7|
0,1,4.1|
0,2,5.9|
0,3,0.59|
0,4,3.2|
0,5,9.1|
0,6,5.9|
0,7,2.5|
1,0,6.1|
1,1,4.7|
1,2,8|
1,3,2.7|
1,4,0.75|
1,5,2.3|
1,6,7.6|
1,7,3.2|
2,0,2.7|
2,1,7.6|
2,2,9.6|
2,3,2.7|
2,4,3.4|
2,5,4.3|
2,6,8.1|
2,7,1|
3,0,7|
3,1,8.5|
3,2,4.2|
3,3,8.2|
3,4,1.6|
3,5,6.7|
3,6,5.4|
3,7,2.1|
4,0,3.7|
4,1,8.6|
4,2,9.4|
4,3,0.23|
4,4,7.4|
4,5,4.2|
4,6,3.9|
4,7,9.9|
5,0,3.6|
5,1,8.2|
5,2,7.7|
5,3,0.89|
5,4,4.4|
5,5,9.2|
5,6,3.7|
5,7,8.7|
6,0,9.8|
6,1,8.7|
6,2,5.8|
6,3,5.5|
6,4,7.7|
6,5,6.7|
6,6,5.2|
6,7,3.5|
7,0,6.1|
7,1,1.1|
7,2,0.068|
7,3,9.1|
7,4,9.1|
7,5,5.4|
7,6,3.8|
7,7,3.4|
];
constraint_x4_x3=[
0,0,7.7|
0,1,9.3|
0,2,7.4|
0,3,10|
0,4,3|
0,5,2.8|
0,6,5.8|
0,7,3.3|
1,0,2.7|
1,1,6.5|
1,2,0.64|
1,3,7.2|
1,4,5.6|
1,5,5.2|
1,6,8.1|
1,7,0.87|
2,0,2|
2,1,3.7|
2,2,5.3|
2,3,0.69|
2,4,3|
2,5,4.5|
2,6,7.3|
2,7,7|
3,0,8.5|
3,1,2.3|
3,2,6.2|
3,3,9.5|
3,4,4.5|
3,5,0.78|
3,6,5.7|
3,7,1.5|
4,0,4.2|
4,1,2|
4,2,2.4|
4,3,9.2|
4,4,4.9|
4,5,0.3|
4,6,6.2|
4,7,3.8|
5,0,3.4|
5,1,4.1|
5,2,2|
5,3,0.21|
5,4,8.6|
5,5,6.7|
5,6,1.9|
5,7,3.3|
6,0,5.1|
6,1,6.8|
6,2,6.7|
6,3,8.7|
6,4,4|
6,5,6.9|
6,6,6.4|
6,7,4.4|
7,0,6.8|
7,1,5.5|
7,2,7.5|
7,3,0.14|
7,4,0.16|
7,5,4.6|
7,6,2.8|
7,7,9.3|
];
constraint_x5_x1=[
0,0,2.8|
0,1,0.62|
0,2,5.4|
0,3,6.7|
0,4,4.5|
0,5,3.3|
0,6,7.7|
0,7,9.3|
1,0,0.95|
1,1,7|
1,2,9.6|
1,3,5|
1,4,6.9|
1,5,6.7|
1,6,1.7|
1,7,8.1|
2,0,7.1|
2,1,4|
2,2,0.26|
2,3,5.5|
2,4,2.8|
2,5,6|
2,6,8.1|
2,7,5.4|
3,0,8.5|
3,1,6.2|
3,2,5.4|
3,3,4.5|
3,4,4.8|
3,5,5.3|
3,6,5.3|
3,7,4.3|
4,0,5|
4,1,3.4|
4,2,5.7|
4,3,2.1|
4,4,3.2|
4,5,3.9|
4,6,5|
4,7,4.2|
5,0,1.4|
5,1,7|
5,2,9.8|
5,3,7.2|
5,4,2.9|
5,5,0.25|
5,6,4.1|
5,7,7.7|
6,0,6.9|
6,1,3.9|
6,2,2.6|
6,3,5.9|
6,4,0.49|
6,5,0.13|
6,6,1|
6,7,7.6|
7,0,6.6|
7,1,0.06|
7,2,3.5|
7,3,0.2|
7,4,4|
7,5,9.2|
7,6,1.4|
7,7,3.7|
];
constraint_x6_x2=[
0,0,3.6|
0,1,8.5|
0,2,3.8|
0,3,6.6|
0,4,6.1|
0,5,3|
0,6,8.9|
0,7,4.7|
1,0,6.7|
1,1,8.6|
1,2,8.3|
1,3,6.3|
1,4,5.2|
1,5,4.2|
1,6,2.4|
1,7,5.9|
2,0,4.9|
2,1,4|
2,2,3.2|
2,3,7.9|
2,4,0.47|
2,5,9.3|
2,6,6.3|
2,7,1.4|
3,0,0.47|
3,1,0.48|
3,2,2.3|
3,3,6.4|
3,4,0.61|
3,5,4.5|
3,6,0.35|
3,7,2.5|
4,0,1.7|
4,1,8.1|
4,2,3.6|
4,3,0.059|
4,4,3.2|
4,5,0.23|
4,6,5.1|
4,7,1.2|
5,0,5.6|
5,1,3.9|
5,2,6|
5,3,9.4|
5,4,6.5|
5,5,2.2|
5,6,4.9|
5,7,0.32|
6,0,1.2|
6,1,0.72|
6,2,8.6|
6,3,1.8|
6,4,7.7|
6,5,2.5|
6,6,4|
6,7,4.6|
7,0,5.9|
7,1,9.4|
7,2,4|
7,3,2.7|
7,4,6.1|
7,5,6.9|
7,6,1.4|
7,7,8.5|
];
constraint_x6_x5=[
0,0,9.1|
0,1,7.2|
0,2,0.5|
0,3,2.4|
0,4,4|
0,5,5.5|
0,6,3.2|
0,7,6|
1,0,8.4|
1,1,7.2|
1,2,3|
1,3,4.8|
1,4,3.9|
1,5,1.4|
1,6,9.3|
1,7,6.2|
2,0,0.39|
2,1,0.99|
2,2,6.2|
2,3,6.8|
2,4,0.15|
2,5,8.4|
2,6,2.8|
2,7,7|
3,0,8.4|
3,1,2.9|
3,2,1.2|
3,3,8.1|
3,4,5.4|
3,5,4.9|
3,6,5|
3,7,9.9|
4,0,0.18|
4,1,9.9|
4,2,7.6|
4,3,3.6|
4,4,3.2|
4,5,4.3|
4,6,5.7|
4,7,5.8|
5,0,0.39|
5,1,0.59|
5,2,8.5|
5,3,1.9|
5,4,9.1|
5,5,1.2|
5,6,2|
5,7,6.4|
6,0,3.8|
6,1,6.4|
6,2,6.1|
6,3,0.99|
6,4,3.9|
6,5,4.5|
6,6,6.9|
6,7,8|
7,0,7.7|
7,1,8.8|
7,2,2.9|
7,3,1.5|
7,4,0.68|
7,5,1.4|
7,6,8.1|
7,7,4.8|
];
constraint_x7_x3=[
0,0,9|
0,1,7|
0,2,0.89|
0,3,3.1|
0,4,2.3|
0,5,7.7|
0,6,6.7|
0,7,0.43|
1,0,0.29|
1,1,0.79|
1,2,0.11|
1,3,3.8|
1,4,7.5|
1,5,2.9|
1,6,0.67|
1,7,1.9|
2,0,2.9|
2,1,3.2|
2,2,6.4|
2,3,1.2|
2,4,2.4|
2,5,7.3|
2,6,8.9|
2,7,2.9|
3,0,7.9|
3,1,0.4|
3,2,2.5|
3,3,0.41|
3,4,7.4|
3,5,2.4|
3,6,3|
3,7,8|
4,0,2|
4,1,5.1|
4,2,6.3|
4,3,0.42|
4,4,8.3|
4,5,4.6|
4,6,3.8|
4,7,8.5|
5,0,7|
5,1,5.3|
5,2,3.4|
5,3,6.8|
5,4,4.3|
5,5,8.8|
5,6,9.6|
5,7,0.35|
6,0,8.8|
6,1,8.5|
6,2,7.5|
6,3,5.8|
6,4,4.1|
6,5,2|
6,6,3.4|
6,7,1.4|
7,0,7.7|
7,1,7.1|
7,2,4.4|
7,3,5.3|
7,4,9.9|
7,5,6.2|
7,6,7.9|
7,7,1.6|
];
constraint_x7_x6=[
0,0,5|
0,1,8.6|
0,2,5.9|
0,3,2.9|
0,4,3.1|
0,5,2.4|
0,6,3.9|
0,7,5.6|
1,0,5.8|
1,1,4.4|
1,2,2.8|
1,3,3.3|
1,4,0.93|
1,5,6.9|
1,6,4.9|
1,7,6.3|
2,0,3.8|
2,1,4.5|
2,2,8.4|
2,3,8.5|
2,4,5.2|
2,5,3.6|
2,6,6.6|
2,7,8.1|
3,0,1|
3,1,1.2|
3,2,4.9|
3,3,0.96|
3,4,6.3|
3,5,3.3|
3,6,8.3|
3,7,2.8|
4,0,5.9|
4,1,7.3|
4,2,9.6|
4,3,3.2|
4,4,7|
4,5,7.6|
4,6,5.7|
4,7,0.94|
5,0,5.4|
5,1,9.6|
5,2,8.6|
5,3,1.4|
5,4,8.2|
5,5,3.7|
5,6,4.1|
5,7,0.11|
6,0,0.14|
6,1,0.59|
6,2,7.4|
6,3,4.6|
6,4,9.3|
6,5,9.5|
6,6,4.3|
6,7,1.3|
7,0,0.86|
7,1,0.24|
7,2,5.9|
7,3,1|
7,4,6.6|
7,5,5.3|
7,6,2.8|
7,7,9.3|
];
constraint_x8_x4=[
0,0,2.4|
0,1,0.93|
0,2,8.2|
0,3,5.3|
0,4,3.3|
0,5,7.4|
0,6,7|
0,7,2.8|
1,0,8.7|
1,1,5.1|
1,2,5|
1,3,0.77|
1,4,7.6|
1,5,0.86|
1,6,8.1|
1,7,6.3|
2,0,5.2|
2,1,9.2|
2,2,3|
2,3,8.1|
2,4,2.5|
2,5,5.2|
2,6,2.3|
2,7,6.5|
3,0,5.4|
3,1,4.6|
3,2,2.9|
3,3,1.8|
3,4,4.9|
3,5,6.3|
3,6,3|
3,7,2.8|
4,0,9.4|
4,1,9.4|
4,2,0.072|
4,3,3.2|
4,4,8|
4,5,0.87|
4,6,8.3|
4,7,8.8|
5,0,4.6|
5,1,9.8|
5,2,0.53|
5,3,7.8|
5,4,6.8|
5,5,0.77|
5,6,7.6|
5,7,4.8|
6,0,6.3|
6,1,4.2|
6,2,7.2|
6,3,0.99|
6,4,0.063|
6,5,7.6|
6,6,3|
6,7,3.7|
7,0,3|
7,1,9.5|
7,2,9.5|
7,3,0.12|
7,4,1.8|
7,5,9.5|
7,6,3.5|
7,7,4.6|
];
constraint_x8_x7=[
0,0,0.49|
0,1,5.2|
0,2,1.6|
0,3,0.42|
0,4,2.8|
0,5,1.1|
0,6,8.8|
0,7,3.1|
1,0,0.73|
1,1,5.6|
1,2,1.5|
1,3,5.3|
1,4,8.4|
1,5,0.054|
1,6,2.5|
1,7,4.7|
2,0,6.4|
2,1,5.9|
2,2,1.9|
2,3,6.6|
2,4,2.4|
2,5,5.9|
2,6,3.6|
2,7,4.1|
3,0,8.4|
3,1,2.6|
3,2,2|
3,3,1.5|
3,4,0.63|
3,5,0.5|
3,6,2.3|
3,7,8.7|
4,0,5.9|
4,1,9.6|
4,2,6.9|
4,3,1.5|
4,4,5.5|
4,5,4.4|
4,6,9.4|
4,7,9.8|
5,0,6.9|
5,1,3.5|
5,2,0.062|
5,3,1.8|
5,4,6.9|
5,5,7.1|
5,6,2.8|
5,7,0.31|
6,0,3.9|
6,1,0.59|
6,2,4.6|
6,3,6.7|
6,4,1.4|
6,5,0.63|
6,6,9.5|
6,7,9.6|
7,0,6.6|
7,1,4.9|
7,2,9.8|
7,3,2.6|
7,4,6.5|
7,5,4|
7,6,4.1|
7,7,3.5|
];
constraint_x9_x5=[
0,0,1.3|
0,1,5.7|
0,2,5.3|
0,3,4.5|
0,4,6.6|
0,5,5.2|
0,6,0.39|
0,7,6|
1,0,8.5|
1,1,7.3|
1,2,0.62|
1,3,2.1|
1,4,9.7|
1,5,6.7|
1,6,2.3|
1,7,8.2|
2,0,8.3|
2,1,2.8|
2,2,7|
2,3,9.2|
2,4,9.3|
2,5,5.8|
2,6,4.9|
2,7,1.1|
3,0,4.6|
3,1,9.7|
3,2,0.042|
3,3,6.7|
3,4,9.6|
3,5,2.5|
3,6,1.4|
3,7,0.15|
4,0,4.8|
4,1,2.8|
4,2,2.3|
4,3,4.4|
4,4,6.1|
4,5,9|
4,6,8.8|
4,7,0.21|
5,0,0.3|
5,1,6|
5,2,9.9|
5,3,1.8|
5,4,3.1|
5,5,6.9|
5,6,9.9|
5,7,3.8|
6,0,0.55|
6,1,3.8|
6,2,9.3|
6,3,6.2|
6,4,4.8|
6,5,2.4|
6,6,1.1|
6,7,4.7|
7,0,9|
7,1,9.9|
7,2,3.7|
7,3,5.9|
7,4,2.1|
7,5,8.8|
7,6,10|
7,7,1.4|
];
constraint_x10_x6=[
0,0,8.8|
0,1,9.6|
0,2,0.34|
0,3,7.5|
0,4,5.8|
0,5,9|
0,6,8.5|
0,7,4|
1,0,5.7|
1,1,5.6|
1,2,9.3|
1,3,0.75|
1,4,1.9|
1,5,7.4|
1,6,7.2|
1,7,5.3|
2,0,4.5|
2,1,4.9|
2,2,4.6|
2,3,8.4|
2,4,1.7|
2,5,0.31|
2,6,9.2|
2,7,0.41|
3,0,8.3|
3,1,8.7|
3,2,3.6|
3,3,9.7|
3,4,5.1|
3,5,5.4|
3,6,2.8|
3,7,4.9|
4,0,3.2|
4,1,4.6|
4,2,6.5|
4,3,2.4|
4,4,8.7|
4,5,3.7|
4,6,4.1|
4,7,8.5|
5,0,7.2|
5,1,0.19|
5,2,3.7|
5,3,9.2|
5,4,7.9|
5,5,3.8|
5,6,1.3|
5,7,9.6|
6,0,1|
6,1,1.9|
6,2,7.9|
6,3,2.7|
6,4,9.5|
6,5,3.2|
6,6,1.9|
6,7,9.4|
7,0,1.5|
7,1,7.2|
7,2,5.9|
7,3,6.4|
7,4,4.4|
7,5,9.3|
7,6,8.2|
7,7,3.5|
];
constraint_x10_x9=[
0,0,4.9|
0,1,1.3|
0,2,9.8|
0,3,0.64|
0,4,4.2|
0,5,2.6|
0,6,5.1|
0,7,6.9|
1,0,5|
1,1,8|
1,2,6.6|
1,3,6.3|
1,4,9.6|
1,5,1.9|
1,6,2.1|
1,7,7.9|
2,0,9|
2,1,8.3|
2,2,4.7|
2,3,4.7|
2,4,6.3|
2,5,0.043|
2,6,7.9|
2,7,0.97|
3,0,1.9|
3,1,2.4|
3,2,8.2|
3,3,5.9|
3,4,4.3|
3,5,4.9|
3,6,7.6|
3,7,9.8|
4,0,6|
4,1,7|
4,2,9.4|
4,3,0.24|
4,4,7|
4,5,6.8|
4,6,2.7|
4,7,8.1|
5,0,2.7|
5,1,3|
5,2,9.7|
5,3,1.4|
5,4,9.6|
5,5,4.7|
5,6,5.4|
5,7,1.2|
6,0,2.5|
6,1,8.1|
6,2,1.6|
6,3,2.5|
6,4,8.8|
6,5,9.5|
6,6,4.3|
6,7,6.7|
7,0,6|
7,1,8.7|
7,2,5.2|
7,3,9.2|
7,4,4.5|
7,5,1.1|
7,6,6.8|
7,7,8.1|
];
constraint_x11_x7=[
0,0,0.66|
0,1,3.5|
0,2,2.2|
0,3,5.7|
0,4,2.3|
0,5,6.5|
0,6,1.9|
0,7,3.1|
1,0,7.2|
1,1,6|
1,2,5|
1,3,6.4|
1,4,9.7|
1,5,5.9|
1,6,5|
1,7,5.4|
2,0,5.8|
2,1,5.1|
2,2,1.5|
2,3,7.2|
2,4,8.1|
2,5,8.5|
2,6,0.35|
2,7,0.94|
3,0,5.5|
3,1,1.6|
3,2,9.6|
3,3,2|
3,4,3.7|
3,5,9.7|
3,6,9.2|
3,7,8.4|
4,0,8.9|
4,1,1.6|
4,2,0.63|
4,3,9|
4,4,7.4|
4,5,5.5|
4,6,6.5|
4,7,0.84|
5,0,1|
5,1,4.4|
5,2,0.34|
5,3,8.3|
5,4,5.6|
5,5,6|
5,6,6|
5,7,8.9|
6,0,5.4|
6,1,2.2|
6,2,0.31|
6,3,5.1|
6,4,0.55|
6,5,6.6|
6,6,9.4|
6,7,5.6|
7,0,1.5|
7,1,3.9|
7,2,1.5|
7,3,9.3|
7,4,0.89|
7,5,8.2|
7,6,1.3|
7,7,4.8|
];
constraint_x11_x10=[
0,0,9.7|
0,1,0.05|
0,2,7.8|
0,3,6.1|
0,4,3.5|
0,5,9.8|
0,6,6.2|
0,7,6.9|
1,0,7.3|
1,1,4.6|
1,2,4.2|
1,3,9.6|
1,4,6.8|
1,5,9.2|
1,6,3.4|
1,7,6.8|
2,0,0.7|
2,1,0.5|
2,2,6.9|
2,3,3.7|
2,4,7.2|
2,5,5.1|
2,6,0.16|
2,7,0.58|
3,0,6.6|
3,1,7.8|
3,2,1.8|
3,3,3.2|
3,4,6.8|
3,5,7.1|
3,6,9.9|
3,7,3.7|
4,0,1.8|
4,1,8.3|
4,2,3|
4,3,8.1|
4,4,0.86|
4,5,6.2|
4,6,5|
4,7,0.66|
5,0,2.9|
5,1,8.7|
5,2,8.4|
5,3,5.7|
5,4,7.9|
5,5,2.8|
5,6,4.4|
5,7,4.1|
6,0,0.8|
6,1,3.3|
6,2,5.4|
6,3,8.8|
6,4,3.1|
6,5,6.8|
6,6,4|
6,7,5|
7,0,0.98|
7,1,6.8|
7,2,1.3|
7,3,3.6|
7,4,5.8|
7,5,3.9|
7,6,8.4|
7,7,5.9|
];
constraint_x12_x8=[
0,0,7.2|
0,1,5.1|
0,2,9.4|
0,3,5.7|
0,4,1.5|
0,5,8.1|
0,6,7.6|
0,7,4.3|
1,0,6.2|
1,1,3.2|
1,2,7.8|
1,3,7.9|
1,4,7.3|
1,5,6.5|
1,6,8.6|
1,7,4.6|
2,0,0.13|
2,1,0.42|
2,2,2.5|
2,3,0.28|
2,4,2.4|
2,5,9.2|
2,6,3|
2,7,4.9|
3,0,6.2|
3,1,1.7|
3,2,3.2|
3,3,0.23|
3,4,7.1|
3,5,5.7|
3,6,5.5|
3,7,7.2|
4,0,8.3|
4,1,7|
4,2,5.9|
4,3,0.3|
4,4,5|
4,5,7|
4,6,5.4|
4,7,9.5|
5,0,2.5|
5,1,0.38|
5,2,1.6|
5,3,0.87|
5,4,5.6|
5,5,8.5|
5,6,6.3|
5,7,2.8|
6,0,4.8|
6,1,6.9|
6,2,9.6|
6,3,1.5|
6,4,0.35|
6,5,6.7|
6,6,7.9|
6,7,6.4|
7,0,3.1|
7,1,5.7|
7,2,4.3|
7,3,1.3|
7,4,9.1|
7,5,4.7|
7,6,3.8|
7,7,3.9|
];
constraint_x12_x11=[
0,0,4.7|
0,1,7|
0,2,9.2|
0,3,0.79|
0,4,0.2|
0,5,2.4|
0,6,0.26|
0,7,2.8|
1,0,3.6|
1,1,4.6|
1,2,5.6|
1,3,7.5|
1,4,3.4|
1,5,0.38|
1,6,4.6|
1,7,1.4|
2,0,1.9|
2,1,4.8|
2,2,1.1|
2,3,1.5|
2,4,9.2|
2,5,3.6|
2,6,1|
2,7,9|
3,0,3.2|
3,1,1.7|
3,2,3.7|
3,3,9.4|
3,4,0.44|
3,5,4|
3,6,7.9|
3,7,1.3|
4,0,1.6|
4,1,8.5|
4,2,4.2|
4,3,8.6|
4,4,8.5|
4,5,0.96|
4,6,0.4|
4,7,4.6|
5,0,6.9|
5,1,2.6|
5,2,0.95|
5,3,5.6|
5,4,8.5|
5,5,9.6|
5,6,0.83|
5,7,4.7|
6,0,8.8|
6,1,3.5|
6,2,6.9|
6,3,8.9|
6,4,2.7|
6,5,1|
6,6,2|
6,7,6.4|
7,0,6.5|
7,1,7.3|
7,2,3.8|
7,3,1.2|
7,4,0.42|
7,5,8|
7,6,2.1|
7,7,1.8|
];
constraint_x13_x9=[
0,0,6.6|
0,1,9.2|
0,2,8|
0,3,2.4|
0,4,2.5|
0,5,1.5|
0,6,5.8|
0,7,4.8|
1,0,8.5|
1,1,0.91|
1,2,2.4|
1,3,6.6|
1,4,0.26|
1,5,7|
1,6,2.1|
1,7,9.1|
2,0,6.1|
2,1,8.6|
2,2,5.4|
2,3,2.8|
2,4,2.8|
2,5,4.5|
2,6,1|
2,7,3.2|
3,0,0.86|
3,1,2.7|
3,2,7.5|
3,3,1.3|
3,4,9.1|
3,5,0.34|
3,6,9.4|
3,7,1.4|
4,0,2.8|
4,1,4.9|
4,2,5.9|
4,3,2.6|
4,4,8|
4,5,9.5|
4,6,9.9|
4,7,4.3|
5,0,8|
5,1,3.4|
5,2,5.2|
5,3,6.8|
5,4,9.4|
5,5,3|
5,6,0.29|
5,7,1.9|
6,0,2.3|
6,1,9.3|
6,2,7.7|
6,3,9.9|
6,4,0.26|
6,5,7|
6,6,0.73|
6,7,5|
7,0,9.3|
7,1,8.8|
7,2,5.9|
7,3,4.9|
7,4,2.1|
7,5,3.2|
7,6,1.5|
7,7,4.7|
];
constraint_x14_x10=[
0,0,3|
0,1,2.6|
0,2,5.2|
0,3,2.2|
0,4,3.9|
0,5,8.3|
0,6,6.2|
0,7,4.4|
1,0,9.4|
1,1,6.2|
1,2,3.3|
1,3,9.9|
1,4,7|
1,5,4.8|
1,6,7.3|
1,7,5.4|
2,0,8.9|
2,1,0.31|
2,2,5.4|
2,3,2.7|
2,4,9.8|
2,5,3.1|
2,6,1.6|
2,7,3.1|
3,0,2.9|
3,1,5.3|
3,2,7.5|
3,3,7.1|
3,4,1.1|
3,5,7.7|
3,6,8.6|
3,7,4.8|
4,0,2.8|
4,1,1.1|
4,2,9.9|
4,3,1.1|
4,4,2.4|
4,5,3.4|
4,6,9.9|
4,7,0.37|
5,0,3.1|
5,1,3.3|
5,2,1.4|
5,3,4.3|
5,4,1.9|
5,5,5.3|
5,6,2.5|
5,7,9.9|
6,0,2|
6,1,3.1|
6,2,7.6|
6,3,9.4|
6,4,7.8|
6,5,6.7|
6,6,2.6|
6,7,7.7|
7,0,8.6|
7,1,4.7|
7,2,6.5|
7,3,0.97|
7,4,9.5|
7,5,6.3|
7,6,2.6|
7,7,6.2|
];
constraint_x1_y1=[
0,0,8.2|
0,1,2.5|
0,2,8.8|
0,3,5|
0,4,0.52|
0,5,8.9|
0,6,0.14|
0,7,8|
1,0,4.3|
1,1,0.29|
1,2,1.3|
1,3,3.8|
1,4,6.3|
1,5,8.8|
1,6,9.8|
1,7,0.47|
2,0,4.9|
2,1,3.8|
2,2,7.5|
2,3,6.9|
2,4,2.8|
2,5,4.8|
2,6,0.12|
2,7,3|
3,0,1.9|
3,1,9.3|
3,2,9.7|
3,3,7|
3,4,2.8|
3,5,2.5|
3,6,9|
3,7,5|
4,0,7.2|
4,1,6.3|
4,2,2.2|
4,3,0.29|
4,4,4.2|
4,5,1.4|
4,6,5.4|
4,7,9.4|
5,0,0.33|
5,1,7.9|
5,2,8.9|
5,3,0.82|
5,4,6.6|
5,5,0.84|
5,6,5.1|
5,7,6.2|
6,0,3.6|
6,1,4.2|
6,2,1.7|
6,3,9.8|
6,4,1.7|
6,5,4.7|
6,6,2.9|
6,7,6.1|
7,0,3.7|
7,1,9.7|
7,2,8|
7,3,5.9|
7,4,4.1|
7,5,1.2|
7,6,8.7|
7,7,5.6|
];
constraint_x2_y2=[
0,0,6.1|
0,1,4.3|
0,2,3.9|
0,3,9.2|
0,4,5.3|
0,5,5.3|
0,6,5.9|
0,7,5.7|
1,0,6.1|
1,1,6.5|
1,2,9.3|
1,3,1|
1,4,2.2|
1,5,1|
1,6,0.55|
1,7,8.7|
2,0,6.5|
2,1,9.1|
2,2,0.27|
2,3,8.8|
2,4,0.65|
2,5,3|
2,6,9.5|
2,7,4.1|
3,0,1.7|
3,1,7|
3,2,0.91|
3,3,5.8|
3,4,3.9|
3,5,0.43|
3,6,3.1|
3,7,7.8|
4,0,3.4|
4,1,2.5|
4,2,1.7|
4,3,0.0094|
4,4,4.8|
4,5,5.8|
4,6,1.4|
4,7,9.5|
5,0,9.9|
5,1,2.9|
5,2,7.5|
5,3,9.9|
5,4,5.9|
5,5,0.05|
5,6,6.4|
5,7,6.5|
6,0,8.7|
6,1,5.9|
6,2,8.9|
6,3,4.8|
6,4,7.6|
6,5,5.4|
6,6,0.65|
6,7,3.1|
7,0,4.2|
7,1,3.6|
7,2,9.9|
7,3,7.7|
7,4,9.4|
7,5,9.5|
7,6,6.6|
7,7,0.058|
];
constraint_x3_y3=[
0,0,8.4|
0,1,3|
0,2,4.9|
0,3,4.4|
0,4,6.9|
0,5,0.016|
0,6,6.8|
0,7,4.4|
1,0,8.4|
1,1,8.3|
1,2,7.1|
1,3,7|
1,4,6.7|
1,5,2.9|
1,6,1.1|
1,7,5.5|
2,0,8.7|
2,1,3.2|
2,2,4.4|
2,3,9.6|
2,4,7.5|
2,5,9.4|
2,6,4.7|
2,7,8.5|
3,0,0.96|
3,1,8.1|
3,2,6.3|
3,3,3.7|
3,4,0.24|
3,5,9.9|
3,6,3.7|
3,7,8|
4,0,9.7|
4,1,4.2|
4,2,5.5|
4,3,9.1|
4,4,9.7|
4,5,3.7|
4,6,6.5|
4,7,5.3|
5,0,3|
5,1,8.6|
5,2,0.45|
5,3,8.5|
5,4,8|
5,5,0.28|
5,6,1.8|
5,7,6.3|
6,0,6.8|
6,1,7.8|
6,2,4.6|
6,3,6.3|
6,4,1.1|
6,5,9.4|
6,6,1.6|
6,7,9.9|
7,0,3.1|
7,1,7.9|
7,2,1.9|
7,3,6.3|
7,4,5|
7,5,5|
7,6,9.7|
7,7,9.6|
];
constraint_x4_y4=[
0,0,5.1|
0,1,1.6|
0,2,3.5|
0,3,2.8|
0,4,4.4|
0,5,8|
0,6,5.1|
0,7,2.9|
1,0,3|
1,1,2.9|
1,2,0.45|
1,3,5.5|
1,4,6.2|
1,5,8.5|
1,6,8|
1,7,3.6|
2,0,4.3|
2,1,8.1|
2,2,6.5|
2,3,6|
2,4,5.4|
2,5,0.34|
2,6,5.7|
2,7,7.6|
3,0,7.2|
3,1,0.51|
3,2,9.9|
3,3,3.2|
3,4,5|
3,5,5.3|
3,6,8.2|
3,7,7.6|
4,0,1.2|
4,1,5.9|
4,2,3.6|
4,3,6.3|
4,4,6.2|
4,5,9.2|
4,6,7.9|
4,7,5.3|
5,0,5.8|
5,1,5.6|
5,2,2.2|
5,3,8.5|
5,4,5.3|
5,5,2.3|
5,6,8|
5,7,4.9|
6,0,2.5|
6,1,4.7|
6,2,4|
6,3,2.6|
6,4,5.5|
6,5,0.95|
6,6,3.4|
6,7,5.5|
7,0,6.4|
7,1,5.5|
7,2,0.018|
7,3,5.2|
7,4,0.82|
7,5,3.8|
7,6,4.3|
7,7,6.9|
];
constraint_x5_y5=[
0,0,5.8|
0,1,5.4|
0,2,0.31|
0,3,3.8|
0,4,6.4|
0,5,1.3|
0,6,7.7|
0,7,6.2|
1,0,2.3|
1,1,4|
1,2,5|
1,3,1.8|
1,4,3|
1,5,8.7|
1,6,2.9|
1,7,9.9|
2,0,0.22|
2,1,0.36|
2,2,2.3|
2,3,2|
2,4,3.1|
2,5,9.6|
2,6,1.2|
2,7,0.29|
3,0,9.1|
3,1,8|
3,2,4.2|
3,3,1.4|
3,4,6.4|
3,5,0.33|
3,6,6.9|
3,7,1.1|
4,0,7|
4,1,2.5|
4,2,6.8|
4,3,9.7|
4,4,9.2|
4,5,2.1|
4,6,9.9|
4,7,0.0038|
5,0,9.4|
5,1,5.1|
5,2,0.96|
5,3,0.9|
5,4,1.2|
5,5,6.2|
5,6,1.7|
5,7,8.3|
6,0,2.5|
6,1,9.8|
6,2,6.7|
6,3,6.6|
6,4,5.2|
6,5,1|
6,6,0.68|
6,7,4.9|
7,0,8.5|
7,1,0.29|
7,2,0.037|
7,3,1.7|
7,4,0.68|
7,5,8.5|
7,6,2.9|
7,7,1.9|
];
constraint_x6_y6=[
0,0,3.4|
0,1,2.1|
0,2,9.5|
0,3,9.6|
0,4,4.8|
0,5,2|
0,6,1.8|
0,7,2.9|
1,0,1.7|
1,1,9.6|
1,2,1.9|
1,3,0.61|
1,4,7.9|
1,5,5.9|
1,6,9.5|
1,7,7.6|
2,0,6.4|
2,1,6.7|
2,2,2.1|
2,3,1.5|
2,4,9.1|
2,5,5.5|
2,6,3.2|
2,7,8.8|
3,0,6.2|
3,1,2.4|
3,2,8.2|
3,3,2.1|
3,4,0.8|
3,5,8.2|
3,6,8.8|
3,7,9.9|
4,0,3.2|
4,1,5.5|
4,2,8.3|
4,3,2.1|
4,4,5.1|
4,5,9.6|
4,6,4.9|
4,7,0.46|
5,0,5.8|
5,1,8.1|
5,2,8.4|
5,3,6.7|
5,4,9.3|
5,5,7.4|
5,6,9.1|
5,7,0.45|
6,0,1.6|
6,1,6.2|
6,2,8.8|
6,3,3|
6,4,6.3|
6,5,5.3|
6,6,9.9|
6,7,4|
7,0,1.8|
7,1,9.8|
7,2,3.5|
7,3,5.6|
7,4,3.5|
7,5,1.4|
7,6,9.6|
7,7,10|
];
initial_distribution_y1=[0.37,0.036,0.048,0.012,0.3,0.042,0.1,0.091];
initial_distribution_y2=[0.15,0.17,0.017,0.087,0.15,0.16,0.12,0.15];
initial_distribution_y3=[0.08,0.11,0.19,0.16,0.11,0.057,0.11,0.17];
initial_distribution_y4=[0.21,0.032,0.16,0.14,0.018,0.24,0.054,0.15];
initial_distribution_y5=[0.16,0.069,0.27,0.075,0.14,0.047,0.18,0.062];
initial_distribution_y6=[0.17,0.13,0.18,0.17,0.053,0.049,0.17,0.08];
transition_y1=[
0.11,0.23,0.094,0.24,0.017,0.16,0.031,0.12|
0.069,0.17,0.25,0.17,0.066,0.071,0.16,0.036|
0.17,0.15,0.17,0.063,0.084,0.13,0.14,0.094|
0.073,0.013,0.092,0.18,0.13,0.19,0.17,0.15|
0.099,0.084,0.033,0.11,0.025,0.23,0.12,0.3|
0.31,0.0049,0.16,0.026,0.1,0.29,0.093,0.017|
0.16,0.036,0.16,0.084,0.18,0.14,0.069,0.17|
0.08,0.18,0.16,0.18,0.18,0.045,0.05,0.13|
];
transition_y2=[
0.031,0.17,0.2,0.18,0.16,0.091,0.053,0.1|
0.19,0.094,0.1,0.16,0.18,0.13,0.14,0.0056|
0.18,0.2,0.075,0.18,0.073,0.25,0.023,0.022|
0.046,0.23,0.21,0.16,0.039,0.1,0.11,0.094|
0.069,0.18,0.09,0.17,0.18,0.13,0.053,0.13|
0.048,0.19,0.1,0.11,0.09,0.17,0.09,0.2|
0.12,0.1,0.099,0.17,0.2,0.085,0.029,0.2|
0.13,0.18,0.11,0.21,0.19,0.0058,0.17,0.0089|
];
transition_y3=[
0.14,0.12,0.2,0.19,0.055,0.038,0.098,0.16|
0.12,0.032,0.13,0.11,0.16,0.11,0.093,0.24|
0.18,0.17,0.096,0.12,0.18,0.054,0.087,0.12|
0.11,0.25,0.22,0.012,0.06,0.2,0.1,0.045|
0.078,0.22,0.22,0.12,0.094,0.061,0.12,0.093|
0.096,0.18,0.048,0.21,0.02,0.088,0.21,0.14|
0.08,0.045,0.1,0.071,0.17,0.15,0.19,0.19|
0.066,0.082,0.17,0.19,0.0063,0.17,0.14,0.18|
];
transition_y4=[
0.15,0.045,0.083,0.15,0.14,0.19,0.16,0.081|
0.15,0.14,0.22,0.11,0.15,0.12,0.062,0.033|
0.027,0.076,0.036,0.16,0.24,0.13,0.26,0.06|
0.11,0.11,0.071,0.068,0.19,0.16,0.095,0.19|
0.17,0.18,0.0095,0.07,0.15,0.19,0.15,0.074|
0.06,0.11,0.067,0.21,0.022,0.17,0.19,0.17|
0.14,0.18,0.17,0.064,0.01,0.19,0.19,0.038|
0.083,0.19,0.014,0.099,0.18,0.19,0.14,0.1|
];
transition_y5=[
0.19,0.23,0.23,0.065,0.1,0.023,0.043,0.11|
0.25,0.14,0.055,0.038,0.19,0.022,0.09,0.22|
0.15,0.047,0.15,0.066,0.18,0.1,0.14,0.16|
0.2,0.081,0.11,0.22,0.11,0.17,0.099,0.0069|
0.044,0.17,0.12,0.11,0.11,0.15,0.11,0.18|
0.2,0.12,0.03,0.1,0.074,0.21,0.14,0.12|
0.14,0.15,0.17,0.085,0.027,0.19,0.11,0.13|
0.14,0.16,0.025,0.19,0.11,0.14,0.037,0.19|
];
transition_y6=[
0.23,0.14,0.053,0.19,0.0056,0.25,0.019,0.096|
0.19,0.06,0.2,0.027,0.049,0.16,0.19,0.13|
0.02,0.12,0.14,0.15,0.19,0.11,0.079,0.19|
0.075,0.13,0.11,0.13,0.11,0.15,0.14,0.16|
0.062,0.02,0.11,0.11,0.25,0.076,0.11,0.26|
0.089,0.24,0.17,0.12,0.14,0.056,0.14,0.039|
0.11,0.19,0.26,0.055,0.12,0.13,0.027,0.096|
0.049,0.026,0.24,0.061,0.27,0.12,0.07,0.15|
];
